benchmarks/bfuzz0/165772328715409257952151514386437311806.smt2
(set-logic QF_FP)
(declare-const x0 (_ FloatingPoint 11 53))
(declare-const x1 (_ FloatingPoint 11 53))
(declare-const x2 (_ FloatingPoint 11 53))
(declare-const x3 (_ FloatingPoint 11 53))
(declare-const x4 (_ FloatingPoint 11 53))
(declare-const x5 (_ FloatingPoint 11 53))
(declare-const x6 (_ FloatingPoint 11 53))
(declare-const x7 (_ FloatingPoint 11 53))
(declare-const x8 (_ FloatingPoint 11 53))
(declare-const x9 (_ FloatingPoint 11 53))
(assert (fp.leq (fp.mul RNE (fp.add RNE (fp.sub RNE (fp.add RNE x8 x6) (fp.sub RNE x0 x5)) (fp.sub RNE (fp.sub RNE x9 x2) (fp.add RNE x6 x7))) (fp.div RNE (fp.add RNE (fp.sub RNE x0 x2) (fp.add RNE x6 x5)) (fp.div RNE (fp.sub RNE x6 x4) (fp.add RNE x3 x8)))) (fp.add RNE (fp.mul RNE (fp.add RNE (fp.div RNE x2 x2) (fp.neg x9)) (fp.mul RNE (fp.sub RNE x0 x3) (fp.mul RNE x6 x8))) (fp.mul RNE (fp.add RNE (fp.neg x3) (fp.add RNE x9 x5)) (fp.add RNE (fp.div RNE x7 x4) (fp.div RNE x3 x5))))))
(check-sat)
