db/data/165772328715409257952151514386437311806.z3.out
-------------------
2500.192552982
